NAME : prob20e
TYPE : PDTSP
DIMENSION : 41
EDGE_WEIGHT_TYPE : EUC_2D
NODE_COORD_SECTION
1 842 587
2 181 865
3 105 341
4 802 600
5 169 406
6 746 549
7 339 733
8 312 525
9 392 637
10 232 535
11 129 780
12 43 772
13 584 850
14 777 335
15 40 623
16 290 342
17 816 249
18 810 657
19 88 849
20 994 677
21 359 474
22 721 110
23 419 242
24 616 456
25 492 998
26 197 119
27 266 193
28 235 1
29 892 214
30 161 832
31 943 999
32 937 768
33 285 323
34 994 450
35 846 393
36 366 218
37 100 537
38 910 718
39 491 633
40 250 423
41 137 989
PICKUP_AND_DELIVERY_SECTION
1 0 0 0 0 0 0
2 0 0 0 0 22 0
3 0 0 0 0 23 0
4 0 0 0 0 24 0
5 0 0 0 0 25 0
6 0 0 0 0 26 0
7 0 0 0 0 27 0
8 0 0 0 0 28 0
9 0 0 0 0 29 0
10 0 0 0 0 30 0
11 0 0 0 0 31 0
12 0 0 0 0 32 0
13 0 0 0 0 33 0
14 0 0 0 0 34 0
15 0 0 0 0 35 0
16 0 0 0 0 36 0
17 0 0 0 0 37 0
18 0 0 0 0 38 0
19 0 0 0 0 39 0
20 0 0 0 0 40 0
21 0 0 0 0 41 0
22 0 0 0 0 0 2
23 0 0 0 0 0 3
24 0 0 0 0 0 4
25 0 0 0 0 0 5
26 0 0 0 0 0 6
27 0 0 0 0 0 7
28 0 0 0 0 0 8
29 0 0 0 0 0 9
30 0 0 0 0 0 10
31 0 0 0 0 0 11
32 0 0 0 0 0 12
33 0 0 0 0 0 13
34 0 0 0 0 0 14
35 0 0 0 0 0 15
36 0 0 0 0 0 16
37 0 0 0 0 0 17
38 0 0 0 0 0 18
39 0 0 0 0 0 19
40 0 0 0 0 0 20
41 0 0 0 0 0 21
DEPOT_SECTION
1 
-1
EOF
